(set-logic SLIA)
(synth-fun f ((_arg_0 String) (_arg_1 String)) String
    ((Start String (ntString))
     (ntString String (_arg_0 _arg_1 " "
(str.++ ntString ntString)
(str.replace ntString ntString ntString)
(str.at ntString ntInt)
(int.to.str ntInt)
(str.ite ntBool ntString ntString)
(str.substr ntString ntInt ntInt)
))
      (ntInt Int (0 1 2
(+ ntInt ntInt)
(- ntInt ntInt)
(str.len ntString)
(str.to.int ntString)
(str.indexof ntString ntString ntInt)
))
(ntBool Bool (true false
(= ntInt ntInt)
(str.prefixof ntString ntString)
(str.suffixof ntString ntString)
(str.contains ntString ntString)
))
))
(constraint (= (f "Launa" "Withers") "Launa Withers"))
(constraint (= (f "Lakenya" "Edison") "Lakenya Edison"))
(constraint (= (f "Brendan" "Hage") "Brendan Hage"))
(constraint (= (f "Bradford" "Lango") "Bradford Lango"))
(constraint (= (f "Rudolf" "Akiyama") "Rudolf Akiyama"))
(constraint (= (f "Lara" "Constable") "Lara Constable"))

(check-synth)
(define-fun f_1 ((_arg_0 String) (_arg_1 String)) String (str.++ (str.++ _arg_0 " ") _arg_1))
